100
128
11
63
55
15
2
43
63
49
58
41
47
17
8
5
48
6
54
27
27
51
33
14
55
18
47
37
14
19
49
59
30
14
39
51
2
17
42
11
1
30
1
16
1
47
2
30
2
39
13
35
32
30
40
16
40
23
56
20
36
18
35
2
3
43
29
40
14
28
15
17
41
2
3
1
29
28
4
6
2
35
27
56
22
45
31
33
64
23
3
63
53
1
22
20
48
54
1
32
27
42